Set parameter TokenServer to value "hpc-licenses.hpcc.usc.edu"
Set parameter TimeLimit to value 3600
Gurobi Optimizer version 9.5.1 build v9.5.1rc2 (linux64)
Thread count: 20 physical cores, 20 logical processors, using up to 20 threads
Optimize a model with 6007 rows, 4529 columns and 24534 nonzeros
Model fingerprint: 0x84292c74
Variable types: 4506 continuous, 23 integer (23 binary)
Coefficient statistics:
  Matrix range     [1e+00, 1e+00]
  Objective range  [9e-04, 1e+00]
  Bounds range     [1e+00, 1e+00]
  RHS range        [1e+00, 2e+02]
Found heuristic solution: objective 255.4945995
Presolve removed 1520 rows and 1515 columns
Presolve time: 0.07s
Presolved: 4487 rows, 3014 columns, 21975 nonzeros
Variable types: 2994 continuous, 20 integer (20 binary)

Root relaxation: objective 2.758439e+02, 2660 iterations, 0.15 seconds (0.18 work units)

    Nodes    |    Current Node    |     Objective Bounds      |     Work
 Expl Unexpl |  Obj  Depth IntInf | Incumbent    BestBd   Gap | It/Node Time

     0     0  275.84395    0    2  255.49460  275.84395  7.96%     -    0s
H    0     0                     263.0590995  275.84395  4.86%     -    0s
     0     0  275.78916    0    2  263.05910  275.78916  4.84%     -    0s
H    0     0                     265.3970457  275.78916  3.92%     -    0s
     0     0  275.66574    0    2  265.39705  275.66574  3.87%     -    0s
     0     0  274.89062    0    2  265.39705  274.89062  3.58%     -    0s
     0     0  274.89062    0    2  265.39705  274.89062  3.58%     -    0s
     0     0  274.89062    0    2  265.39705  274.89062  3.58%     -    0s
     0     2  274.89062    0    2  265.39705  274.89062  3.58%     -    0s
*    8     2               4     274.0216712  274.02566  0.00%   452    2s

Cutting planes:
  Gomory: 4
  MIR: 211
  Flow cover: 60
  RLT: 7

Explored 9 nodes (6720 simplex iterations) in 2.11 seconds (1.13 work units)
Thread count was 20 (of 20 available processors)

Solution count 4: 274.022 265.397 263.059 255.495 

Optimal solution found (tolerance 1.00e-04)
Best objective 2.740216712397e+02, best bound 2.740256600234e+02, gap 0.0015%



#########node  1
V1.6
#########node  2
0.0,1.0
#########node  3
0.9868421052631579,0.013157894736842146


Total Solving Time 2.502131938934326
obj value 274.02167123971003
Policy Regret train (Sum) 7.333573780976075
Best Treatment Found train (%) 64.2
treatment classification acc train (%) 50.6
Policy Regret test (Sum) 28.73848887990478
Best Treatment Found test (%) 83.74000000000001
treatment classification acc test (%) 50.57000000000001
